Route #1: 9 62 61 30 57 3
Route #2: 63 48 25 21 5 28
Route #3: 13 56 15 55 54 22 52 45 12
Route #4: 58 31 18 26 2 41 16 66
Route #5: 51 8 23 37 65 32
Route #6: 20 19 1 49 35 11
Route #7: 50 14 4 36 6 34 39
Route #8: 60 64 40 44 42 53 46
Route #9: 38 7 29 24 59 10 27 43
Route #10: 17 47 33
Cost 1116